(declare-const a Real)
(declare-const b Real)
(declare-const c Real)
(assert (= (+ a b c) 3))
(assert (> a 0))
(assert (> b 0))
(assert (> c 0))
(assert (not (<= (+ (* (pow (* (pow a (* 332 c (pow a 2))) (pow (* b (pow a 3)) (* 168 b))) (pow (+ (* 168 b) (* 166 c (pow a 2))) -1)) (+ (* -168 b) (* -166 c (pow a 2)))) (* -552 a (pow c 4)) (* -552 b (pow a 4)) (* -534 c (pow b 4)) (* -184 a (pow b 4)) (* -184 b (pow c 4)) (* -168 (pow a 2) (pow c 3)) (* 120 (pow b 3) (pow c 2)) (* 168 (pow a 2) (pow b 3)) (* 168 (pow b 2) (pow c 3)) (* 456 (pow a 3) (pow c 2)) (* 108 c (pow a 2) (pow b 2)) (* 448 a b (pow c 3)) (* 520 a c (pow b 3)) (* 520 b c (pow a 3))) 0)))
(check-sat)
(get-model)
(exit)